WARNING: for repeatability, setting FPU to use double precision
============================[ Problem Statistics ]=============================
|                                                                             |
|  Number of variables:            50                                         |
|  Number of clauses:             218                                         |
|  Parse time:                   0.00 s                                       |
|                                                                             |
============================[ Search Statistics ]==============================
| Conflicts |          ORIGINAL         |          LEARNT          | Progress |
|           |    Vars  Clauses Literals |    Limit  Clauses Lit/Cl |          |
===============================================================================
===============================================================================
restarts              : 1
conflicts             : 65             (41990 /sec)
decisions             : 66             (0.00 % random) (42636 /sec)
propagations          : 990            (639535 /sec)
conflict literals     : 248            (22.26 % deleted)
Memory used           : 20.00 MB
CPU time              : 0.001548 s

UNSATISFIABLE
